(declare-const delta_string_A.4 Int)
(declare-const delta_i Int)
(assert (exists
         ((|string_A.4'?1| Int) (havoc?2 Int) (phi_string_A.4?3 Int)
            (|i'?4| Int) (string_A.4?5 Int) (i?6 Int))
         (and (<= (- i?6) 0) (<= (+ i?6 -4) 0)
                (or (= (+ (- phi_string_A.4?3) string_A.4?5) 0)
                      (= (+ havoc?2 (- phi_string_A.4?3)) 0))
                (= (+ |i'?4| (- i?6) -1) 0)
                (= (+ |string_A.4'?1| (- phi_string_A.4?3)) 0)
                (= delta_string_A.4 (+ |string_A.4'?1| (- string_A.4?5)))
                (= delta_i (+ |i'?4| (- i?6))))))
(check-sat)
